19 965
525 7 479 7 358 7 163 9 10 11 784 18
525 7 442 7 285 7 105 12
525 7 445 7 286 10
525 7 502 7 412 7 255 9 80 11 874 18
525 7 482 7 365 7 115 9 943 13
535 8 494 8 323 11
521 7 475 7 329 11
525 7 445 7 263 7 62 9 888 11 719 18
525 7 479 7 355 7 106 9 927 13
525 7 479 7 355 7 106 9 927 13
525 7 479 7 355 7 106 9 927 13
525 7 479 7 355 7 106 9 931 13
525 7 482 7 358 7 165 12
525 7 482 7 365 7 115 9 943 13
525 7 482 7 365 7 115 9 943 13
525 7 482 7 365 7 115 9 943 13
525 7 482 7 365 7 115 9 943 13
525 7 445 7 263 7 62 9 888 11 718 18
525 7 479 7 355 7 106 9 927 13
